solution/p_4_3.txt_600.row.log
CPXPARAM_TimeLimit                               600
CPXPARAM_WorkMem                                 4096
CPXPARAM_Threads                                 1
Found incumbent of value 0,000000 after 0,00 sec. (0,00 ticks)
Tried aggregator 2 times.
MIP Presolve eliminated 8 rows and 23 columns.
MIP Presolve modified 21 coefficients.
Aggregator did 1 substitutions.
Reduced MIP has 7 rows, 16 columns, and 23 nonzeros.
Reduced MIP has 16 binaries, 0 generals, 0 SOSs, and 0 indicators.
Presolve time = 0,00 sec. (0,13 ticks)
Probing time = 0,00 sec. (0,00 ticks)
Tried aggregator 1 time.
MIP Presolve eliminated 7 rows and 15 columns.
MIP Presolve modified 6 coefficients.
All rows and columns eliminated.
Presolve time = 0,00 sec. (0,01 ticks)

Root node processing (before b&c):
  Real time             =    0,00 sec. (3,07 ticks)
Sequential b&c:
  Real time             =    0,00 sec. (0,00 ticks)
                          ------------
Total (root+branch&cut) =    0,00 sec. (3,07 ticks)
